Minimize

10.0 x_0_1 + 15.0 x_0_2 + 20.0 x_0_3 + 25.0 x_0_4 + 30.0 x_0_5 + 5.0 x_1_2 + 6.0 x_1_3 + 7.0 x_1_4 + 8.0 x_2_3 + 9.0 x_2_4 + 50.0 x_3_4 + 60.0 x_3_5 + 70.0 x_3_6


Subject To

a0: x_0_1 + x_0_2 + x_0_3 + x_0_4 + x_0_5 = 1
b0:  = 1
c0: x_0_1 - x_1_2 - x_1_3 - x_1_4 = 0
c1: x_0_2 + x_1_2 - x_2_3 - x_2_4 = 0
c2: x_0_3 + x_1_3 + x_2_3 - x_3_4 - x_3_5 - x_3_6 = 0
c3: x_0_4 + x_1_4 + x_2_4 + x_3_4 -  = 0
c4: x_0_5 + x_3_5 -  = 0
c5: x_3_6 -  = 0
c6:  -  = 0
c7:  -  = 0




Binary

x_0_1 x_0_2 x_0_3 x_0_4 x_0_5 x_1_2 x_1_3 x_1_4 x_2_3 x_2_4 x_3_4 x_3_5 x_3_6

 
End
